c This is QMaxSAT 2017 based on 14.07
c This is Glucose 3.0
c This is MiniSat 2.2.0
c WARNING: for repeatability, setting FPU to use double precision
c card = mrwto, comp = 0, pmodel = 0, narr = 8, mct = 29, verb = 0
cr firstCPXsol 0 0 0
c top = 167313
c |  Number of variables:    4185924                                          |
c |  Number of clauses:      321768260                                        |
c |  Weight of hard clauses: 167313                                           |
c |  Number of soft clauses: 6496                                             |
c |  Number of unit soft clauses: 6496                                        |
c |  Maximum Cardinality (by unit): 1338496      (1338496     )               |
c last restart ## conflicts  :  85 453641 
o 1478 | cpuTime 49.6608 s
c Sum of weights = 167312
c A number of soft clauses remained = 812
c MRWTO encoding for Pseudo-Boolean Constraints
c sizeMax=1478
c No.0 Divisor=12	generated by pow1
c No.1 Divisor=12	generated by pow1
c No.2 Divisor=12	generated by pow1
c p0= 12	p1= 12	p2= 12	
c number of digits = 4
c linkingVar[0].size = 12, linkingVar[1].size = 12, linkingVar[2].size = 11, linkingVar[3].size = 1, 
c Pseudo-Boolean Constraints: 18933 variables and 184066 clauses
c Sum of weights = 167312
c A number of soft clauses remained = 812
c MRWTO encoding for Pseudo-Boolean Constraints
c sizeMax=1478
c No.0 Divisor=12	generated by pow1
c No.1 Divisor=12	generated by pow1
c No.2 Divisor=12	generated by pow1
c p0= 12	p1= 12	p2= 12	
c number of digits = 4
c linkingVar[0].size = 12, linkingVar[1].size = 12, linkingVar[2].size = 11, linkingVar[3].size = 1, 
c Pseudo-Boolean Constraints: 18933 variables and 184066 clauses
c Sum of weights = 167312
c A number of soft clauses remained = 812
c MRWTO encoding for Pseudo-Boolean Constraints
c sizeMax=1478
c No.0 Divisor=12	generated by pow1
c No.1 Divisor=12	generated by pow1
c No.2 Divisor=12	generated by pow1
c p0= 12	p1= 12	p2= 12	
c number of digits = 4
c linkingVar[0].size = 12, linkingVar[1].size = 12, linkingVar[2].size = 11, linkingVar[3].size = 1, 
c Pseudo-Boolean Constraints: 18933 variables and 184066 clauses
c Sum of weights = 167312
c A number of soft clauses remained = 812
c MRWTO encoding for Pseudo-Boolean Constraints
c sizeMax=1478
c No.0 Divisor=12	generated by pow1
c No.1 Divisor=12	generated by pow1
c No.2 Divisor=12	generated by pow1
c p0= 12	p1= 12	p2= 12	
c number of digits = 4
c linkingVar[0].size = 12, linkingVar[1].size = 12, linkingVar[2].size = 11, linkingVar[3].size = 1, 
c Pseudo-Boolean Constraints: 18933 variables and 184066 clauses
c Sum of weights = 167312
c A number of soft clauses remained = 812
c MRWTO encoding for Pseudo-Boolean Constraints
c sizeMax=1478
c No.0 Divisor=12	generated by pow1
c No.1 Divisor=12	generated by pow1
c No.2 Divisor=12	generated by pow1
c p0= 12	p1= 12	p2= 12	
c number of digits = 4
c linkingVar[0].size = 12, linkingVar[1].size = 12, linkingVar[2].size = 11, linkingVar[3].size = 1, 
c Pseudo-Boolean Constraints: 18933 variables and 184066 clauses
c Sum of weights = 167312
c A number of soft clauses remained = 812
c MRWTO encoding for Pseudo-Boolean Constraints
c sizeMax=1478
c No.0 Divisor=12	generated by pow1
c No.1 Divisor=12	generated by pow1
c No.2 Divisor=12	generated by pow1
c p0= 12	p1= 12	p2= 12	
c number of digits = 4
c linkingVar[0].size = 12, linkingVar[1].size = 12, linkingVar[2].size = 11, linkingVar[3].size = 1, 
c Pseudo-Boolean Constraints: 18933 variables and 184066 clauses
c Sum of weights = 167312
c A number of soft clauses remained = 812
c MRWTO encoding for Pseudo-Boolean Constraints
c sizeMax=1478
c No.0 Divisor=12	generated by pow1
c No.1 Divisor=12	generated by pow1
c No.2 Divisor=12	generated by pow1
c p0= 12	p1= 12	p2= 12	
c number of digits = 4
c linkingVar[0].size = 12, linkingVar[1].size = 12, linkingVar[2].size = 11, linkingVar[3].size = 1, 
c Pseudo-Boolean Constraints: 18933 variables and 184066 clauses
c Sum of weights = 167312
c A number of soft clauses remained = 812
c MRWTO encoding for Pseudo-Boolean Constraints
c sizeMax=1478
c No.0 Divisor=12	generated by pow1
c No.1 Divisor=12	generated by pow1
c No.2 Divisor=12	generated by pow1
c p0= 12	p1= 12	p2= 12	
c number of digits = 4
c linkingVar[0].size = 12, linkingVar[1].size = 12, linkingVar[2].size = 11, linkingVar[3].size = 1, 
c Pseudo-Boolean Constraints: 18933 variables and 184066 clauses
c last restart ## conflicts  :  193 450418 
o 1229 | cpuTime 70.175 s
c last restart ## conflicts  :  476 445458 
o 1206 | cpuTime 236.651 s
c last restart ## conflicts  :  512 498777 
o 1093 | cpuTime 278.357 s
c last restart ## conflicts  :  192 471579 
o 921 | cpuTime 530.897 s
c last restart ## conflicts  :  1024 477245 
o 903 | cpuTime 1707.05 s
c last restart ## conflicts  :  538 481463 
o 845 | cpuTime 2884.27 s
s UNKNOWN
c Search is stopped by a limit (maybe time-limit)
cr positiVarArr: [ | 22@1(1->22) | 315@1(11->25) | 620@1(22->11) | 697@1(25->1) | 844@2(1->3) | 904@2(3->5) | 963@2(5->6) | 1015@2(6->29) | 1654@2(29->1) | 1690@3(1->8) | 1782@3(4->13) | 1902@3(8->17) | 2031@3(13->1) | 2074@3(14->15) | 2092@3(15->4) | 2160@3(17->14) | 2546@4(1->23) | 3162@4(23->1) | 3373@5(1->9) | 3616@5(9->20) | 3800@5(16->1) | 3931@5(20->16) | 4231@6(1->26) | 4525@6(12->1) | 4958@6(26->28) | 5000@6(28->12) | 5065@7(1->19) | 5093@7(2->18) | 5540@7(18->1) | 5570@7(19->2) | 5908@8(1->21) | 6088@8(7->27) | 6155@8(10->7) | 6477@8(21->10) | 6555@8(24->1) | 6665@8(27->24) | ]
cr the 1-th chain: [ 1->22->11->25->1 ] (#non-depot=3) {#cumul.=4}
cr the 2-th chain: [ 1->3->5->6->29->1 ] (#non-depot=4) {#cumul.=8}
cr the 3-th chain: [ 1->8->17->14->15->4->13->1 ] (#non-depot=6) {#cumul.=14}
cr the 4-th chain: [ 1->23->1 ] (#non-depot=1) {#cumul.=15}
cr the 5-th chain: [ 1->9->20->16->1 ] (#non-depot=3) {#cumul.=18}
cr the 6-th chain: [ 1->26->28->12->1 ] (#non-depot=3) {#cumul.=21}
cr the 7-th chain: [ 1->19->2->18->1 ] (#non-depot=3) {#cumul.=24}
cr the 8-th chain: [ 1->21->10->7->27->24->1 ] (#non-depot=5) {#cumul.=29}
c Latest Answer = 0 by 7 loops
c restarts              : 13142
c conflicts             : 2048610        (570 /sec)
c decisions             : 34765490       (0.00 % random) (9674 /sec)
c propagations          : 15942068302    (4436310 /sec)
c conflict literals     : 452887522      (26.69 % deleted)
c Memory used           : 20760.00 MB
c CPU time              : 3593.54 s
